c Result of efficient AIG-to-CNF conversion using package CNF
p cnf 395 1542
-2 3 185 0
-2 -3 -185 0
2 -3 185 0
2 3 -185 0
-3 -4 -129 0
-3 4 129 0
3 4 -129 0
3 -4 129 0
-4 5 96 0
-4 5 -56 -69 0
-4 56 69 96 0
-4 5 56 69 0
-4 -56 -69 96 0
4 -5 -96 0
4 56 -69 -96 0
4 -5 56 -69 0
4 -56 69 -96 0
4 -5 -56 69 0
-5 6 39 0
-5 6 55 0
5 -6 0
5 -39 -55 0
6 -7 -23 0
-6 7 0
-6 23 0
-7 -8 -15 0
-7 8 15 0
7 8 -15 0
7 -8 15 0
-8 11 13 0
-8 9 13 0
-8 9 11 0
8 -9 -13 0
8 -9 -11 0
8 -11 -13 0
9 -378 -10 0
-9 378 0
-9 10 0
10 373 -376 0
10 -373 376 0
-10 -373 -376 0
-10 373 376 0
-11 376 12 0
-11 -376 -12 0
11 -376 12 0
11 376 -12 0
-12 374 376 0
-12 372 -374 0
-12 370 374 0
12 -372 -374 0
12 -370 374 -376 0
13 -376 378 14 0
-13 376 0
-13 -14 0
-13 -378 0
14 -370 -374 0
-14 370 0
-14 374 0
15 16 -17 0
15 -16 17 0
-15 -16 -17 0
-15 16 17 0
16 -368 9 0
-16 368 0
-16 -9 0
17 -18 20 0
17 18 -20 0
-17 18 20 0
-17 -18 -20 0
-18 376 19 0
-18 -376 -19 0
18 -376 19 0
18 376 -19 0
-19 374 376 0
-19 366 -374 0
-19 372 374 0
19 -366 -374 0
19 -372 374 -376 0
-20 368 21 0
-20 -368 -21 0
20 -368 21 0
20 368 -21 0
-21 10 22 0
-21 370 378 0
-21 370 22 0
-21 378 10 0
21 -370 -10 0
21 -378 -22 0
-22 -373 376 0
-22 -368 -376 0
-22 368 373 0
22 368 -373 -376 0
22 -368 373 376 0
-23 -24 -31 0
-23 24 31 0
23 24 -31 0
23 -24 31 0
-24 27 29 0
-24 25 29 0
-24 25 27 0
24 -25 -29 0
24 -25 -27 0
24 -27 -29 0
25 -365 -26 0
-25 365 0
-25 26 0
26 367 -375 0
26 -367 375 0
-26 -367 -375 0
-26 367 375 0
-27 375 28 0
-27 -375 -28 0
27 -375 28 0
27 375 -28 0
-28 364 375 0
-28 -364 369 0
-28 364 380 0
28 -364 -369 0
28 364 -375 -380 0
29 365 -375 30 0
-29 -365 0
-29 375 0
-29 -30 0
30 -364 -380 0
-30 364 0
-30 380 0
31 32 -33 0
31 -32 33 0
-31 -32 -33 0
-31 32 33 0
32 -381 25 0
-32 381 0
-32 -25 0
33 -34 36 0
33 34 -36 0
-33 34 36 0
-33 -34 -36 0
-34 375 35 0
-34 -375 -35 0
34 -375 35 0
34 375 -35 0
-35 -364 377 0
-35 364 375 0
-35 364 369 0
35 -364 -377 0
35 364 -369 -375 0
-36 381 37 0
-36 -381 -37 0
36 -381 37 0
36 381 -37 0
-37 26 38 0
-37 365 380 0
-37 380 38 0
-37 365 26 0
37 -380 -26 0
37 -365 -38 0
-38 -367 -381 0
-38 375 381 0
-38 367 -375 0
38 -367 -375 381 0
38 367 375 -381 0
-39 -40 -47 0
-39 40 47 0
39 40 -47 0
39 -40 47 0
-40 43 45 0
-40 41 45 0
-40 41 43 0
40 -41 -45 0
40 -41 -43 0
40 -43 -45 0
41 -383 -42 0
-41 383 0
-41 42 0
42 385 -387 0
42 -385 387 0
-42 -385 -387 0
-42 385 387 0
-43 385 44 0
-43 -385 -44 0
43 -385 44 0
43 385 -44 0
-44 385 389 0
-44 388 -389 0
-44 382 389 0
44 -388 -389 0
44 -382 -385 389 0
45 383 -385 46 0
-45 -383 0
-45 385 0
-45 -46 0
46 -382 -389 0
-46 382 0
-46 389 0
47 48 -49 0
47 -48 49 0
-47 -48 -49 0
-47 48 49 0
48 -391 41 0
-48 391 0
-48 -41 0
49 -50 52 0
49 50 -52 0
-49 50 52 0
-49 -50 -52 0
-50 385 51 0
-50 -385 -51 0
50 -385 51 0
50 385 -51 0
-51 385 389 0
-51 -389 392 0
-51 388 389 0
51 -389 -392 0
51 -385 -388 389 0
-52 391 53 0
-52 -391 -53 0
52 -391 53 0
52 391 -53 0
-53 42 54 0
-53 382 383 0
-53 382 54 0
-53 383 42 0
53 -382 -42 0
53 -383 -54 0
-54 -385 -391 0
-54 387 391 0
-54 385 -387 0
54 -385 -387 391 0
54 385 387 -391 0
55 -7 23 0
55 7 -23 0
-55 7 23 0
-55 -7 -23 0
-56 57 58 0
-56 -57 -58 0
56 -57 58 0
56 57 -58 0
57 -40 -47 0
-57 40 0
-57 47 0
-58 -59 -62 0
-58 59 62 0
58 59 -62 0
58 -59 62 0
-59 60 61 0
59 -60 0
59 -61 0
60 -50 -52 0
-60 50 0
-60 52 0
61 -391 41 -49 0
-61 391 0
-61 -41 0
-61 49 0
62 63 -64 0
62 -63 64 0
-62 -63 -64 0
-62 63 64 0
63 -383 391 -393 0
63 -383 -391 393 0
-63 383 0
-63 -391 -393 0
-63 391 393 0
64 -65 67 0
64 65 -67 0
-64 65 67 0
-64 -65 -67 0
-65 385 66 0
-65 -385 -66 0
65 -385 66 0
65 385 -66 0
-66 389 392 0
-66 -389 390 0
-66 385 389 0
66 -389 -390 0
66 -385 389 -392 0
-67 391 68 0
-67 -391 -68 0
67 -391 68 0
67 391 -68 0
-68 42 54 0
-68 382 388 0
-68 388 54 0
-68 382 42 0
68 -388 -42 0
68 -382 -54 0
69 -70 83 0
69 70 -83 0
-69 70 83 0
-69 -70 -83 0
-70 71 72 0
-70 -71 -72 0
70 -71 72 0
70 71 -72 0
71 -8 -15 0
-71 8 0
-71 15 0
-72 -73 -76 0
-72 73 76 0
72 73 -76 0
72 -73 76 0
-73 74 75 0
73 -74 0
73 -75 0
74 -18 -20 0
-74 18 0
-74 20 0
75 -368 9 -17 0
-75 368 0
-75 -9 0
-75 17 0
76 77 -78 0
76 -77 78 0
-76 -77 -78 0
-76 77 78 0
77 368 -378 -379 0
77 -368 -378 379 0
-77 378 0
-77 -368 -379 0
-77 368 379 0
78 -79 81 0
78 79 -81 0
-78 79 81 0
-78 -79 -81 0
-79 376 80 0
-79 -376 -80 0
79 -376 80 0
79 376 -80 0
-80 374 376 0
-80 -374 394 0
-80 366 374 0
80 -374 -394 0
80 -366 374 -376 0
-81 368 82 0
-81 -368 -82 0
81 -368 82 0
81 368 -82 0
-82 10 22 0
-82 370 372 0
-82 372 22 0
-82 370 10 0
82 -372 -10 0
82 -370 -22 0
-83 84 85 0
-83 -84 -85 0
83 -84 85 0
83 84 -85 0
84 -24 -31 0
-84 24 0
-84 31 0
-85 -86 -89 0
-85 86 89 0
85 86 -89 0
85 -86 89 0
-86 87 88 0
86 -87 0
86 -88 0
87 -34 -36 0
-87 34 0
-87 36 0
88 -381 25 -33 0
-88 381 0
-88 -25 0
-88 33 0
89 90 -91 0
89 -90 91 0
-89 -90 -91 0
-89 90 91 0
90 -365 381 -384 0
90 -365 -381 384 0
-90 365 0
-90 -381 -384 0
-90 381 384 0
91 -92 94 0
91 92 -94 0
-91 92 94 0
-91 -92 -94 0
-92 375 93 0
-92 -375 -93 0
92 -375 93 0
92 375 -93 0
-93 364 377 0
-93 363 -364 0
-93 364 375 0
93 -363 -364 0
93 364 -375 -377 0
-94 381 95 0
-94 -381 -95 0
94 -381 95 0
94 381 -95 0
-95 26 38 0
-95 369 380 0
-95 369 38 0
-95 380 26 0
95 -369 -26 0
95 -380 -38 0
-96 97 106 0
-96 106 107 0
-96 97 107 0
96 -97 -107 0
96 -106 -107 0
96 -97 -106 0
-97 98 103 0
-97 98 105 0
97 -98 0
97 -103 -105 0
98 -99 -101 0
-98 99 0
-98 101 0
-99 13 100 0
-99 -13 -100 0
99 -13 100 0
99 13 -100 0
-100 9 11 0
-100 -9 -11 0
100 -9 11 0
100 9 -11 0
-101 29 102 0
-101 -29 -102 0
101 -29 102 0
101 29 -102 0
-102 25 27 0
-102 -25 -27 0
102 -25 27 0
102 25 -27 0
-103 45 104 0
-103 -45 -104 0
103 -45 104 0
103 45 -104 0
-104 41 43 0
-104 -41 -43 0
104 -41 43 0
104 41 -43 0
105 -99 101 0
105 99 -101 0
-105 99 101 0
-105 -99 -101 0
-106 -39 -55 0
-106 39 55 0
106 39 -55 0
106 -39 55 0
-107 108 123 0
-107 123 124 0
-107 108 124 0
107 -123 -124 0
107 -108 -123 0
107 -108 -124 0
-108 109 118 0
-108 109 122 0
108 -109 0
108 -118 -122 0
109 -110 -114 0
-109 110 0
-109 114 0
-110 111 112 0
-110 -111 -112 0
110 -111 112 0
110 111 -112 0
111 374 -376 0
111 -376 378 0
-111 376 0
-111 -374 -378 0
-112 376 113 0
-112 -376 -113 0
112 -376 113 0
112 376 -113 0
-113 374 378 0
-113 370 -374 0
-113 374 376 0
113 -370 -374 0
113 374 -376 -378 0
-114 115 116 0
-114 -115 -116 0
114 -115 116 0
114 115 -116 0
115 365 -375 0
115 364 -375 0
-115 375 0
-115 -364 -365 0
-116 375 117 0
-116 -375 -117 0
116 -375 117 0
116 375 -117 0
-117 -364 380 0
-117 364 375 0
-117 364 365 0
117 -364 -380 0
117 364 -365 -375 0
-118 119 120 0
-118 -119 -120 0
118 -119 120 0
118 119 -120 0
119 383 -385 0
119 -385 389 0
-119 385 0
-119 -383 -389 0
-120 385 121 0
-120 -385 -121 0
120 -385 121 0
120 385 -121 0
-121 383 389 0
-121 382 -389 0
-121 385 389 0
121 -382 -389 0
121 -383 -385 389 0
122 -110 114 0
122 110 -114 0
-122 110 114 0
-122 -110 -114 0
-123 -103 -105 0
-123 103 105 0
123 103 -105 0
123 -103 105 0
124 -125 -127 -128 0
124 -125 -126 -128 0
124 -126 -127 -128 0
-124 125 127 0
-124 126 127 0
-124 128 0
-124 125 126 0
125 -374 -378 0
-125 374 0
-125 378 0
126 -364 -365 0
-126 364 0
-126 365 0
127 -383 -389 0
-127 383 0
-127 389 0
-128 -118 -122 0
-128 118 122 0
128 118 -122 0
128 -118 122 0
129 -130 132 0
129 130 -132 0
-129 130 132 0
-129 -130 -132 0
-130 131 69 0
-130 56 131 0
130 -131 0
130 -56 -69 0
131 -70 -83 0
-131 70 0
-131 83 0
-132 -133 -150 0
-132 133 150 0
132 133 -150 0
132 -133 150 0
-133 -134 -135 0
-133 134 135 0
133 134 -135 0
133 -134 135 0
-134 59 62 0
-134 57 62 0
-134 57 59 0
134 -57 -62 0
134 -57 -59 0
134 -59 -62 0
135 -136 139 0
135 136 -139 0
-135 136 139 0
-135 -136 -139 0
-136 137 138 0
136 -137 0
136 -138 0
137 -65 -67 0
-137 65 0
-137 67 0
138 -63 -64 0
-138 63 0
-138 64 0
-139 140 141 0
-139 -140 -141 0
139 -140 141 0
139 140 -141 0
140 -362 63 0
-140 362 0
-140 -63 0
-141 -142 -145 0
-141 142 145 0
141 142 -145 0
141 -142 145 0
-142 362 143 0
-142 -362 -143 0
142 -362 143 0
142 362 -143 0
-143 382 144 0
-143 -391 -393 144 0
-143 391 393 144 0
143 -144 0
143 -382 391 -393 0
143 -382 -391 393 0
144 362 -383 -391 -393 0
144 -362 -383 391 393 0
-144 391 -393 0
-144 -362 -391 0
-144 383 0
-144 362 393 0
145 -146 148 0
145 146 -148 0
-145 146 148 0
-145 -146 -148 0
-146 385 147 0
-146 -385 -147 0
146 -385 147 0
146 385 -147 0
-147 389 390 0
-147 361 -389 0
-147 385 389 0
147 -361 -389 0
147 -385 389 -390 0
-148 391 149 0
-148 -391 -149 0
148 -391 149 0
148 391 -149 0
-149 42 54 0
-149 388 392 0
-149 392 54 0
-149 388 42 0
149 -392 -42 0
149 -388 -54 0
150 -151 168 0
150 151 -168 0
-150 151 168 0
-150 -151 -168 0
-151 -152 -153 0
-151 152 153 0
151 152 -153 0
151 -152 153 0
-152 73 76 0
-152 71 76 0
-152 71 73 0
152 -71 -76 0
152 -71 -73 0
152 -73 -76 0
153 -154 157 0
153 154 -157 0
-153 154 157 0
-153 -154 -157 0
-154 155 156 0
154 -155 0
154 -156 0
155 -79 -81 0
-155 79 0
-155 81 0
156 -77 -78 0
-156 77 0
-156 78 0
-157 158 159 0
-157 -158 -159 0
157 -158 159 0
157 158 -159 0
158 -360 77 0
-158 360 0
-158 -77 0
-159 -160 -163 0
-159 160 163 0
159 160 -163 0
159 -160 163 0
-160 360 161 0
-160 -360 -161 0
160 -360 161 0
160 360 -161 0
-161 370 162 0
-161 -368 -379 162 0
-161 368 379 162 0
161 -162 0
161 368 -370 -379 0
161 -368 -370 379 0
162 -360 368 -378 379 0
162 360 -368 -378 -379 0
-162 368 -379 0
-162 360 379 0
-162 378 0
-162 -360 -368 0
163 -164 166 0
163 164 -166 0
-163 164 166 0
-163 -164 -166 0
-164 376 165 0
-164 -376 -165 0
164 -376 165 0
164 376 -165 0
-165 374 394 0
-165 359 -374 0
-165 374 376 0
165 -359 -374 0
165 374 -376 -394 0
-166 368 167 0
-166 -368 -167 0
166 -368 167 0
166 368 -167 0
-167 10 22 0
-167 366 372 0
-167 366 22 0
-167 372 10 0
167 -366 -10 0
167 -372 -22 0
-168 -169 -170 0
-168 169 170 0
168 169 -170 0
168 -169 170 0
-169 86 89 0
-169 84 89 0
-169 84 86 0
169 -84 -89 0
169 -84 -86 0
169 -86 -89 0
170 -171 174 0
170 171 -174 0
-170 171 174 0
-170 -171 -174 0
-171 172 173 0
171 -172 0
171 -173 0
172 -92 -94 0
-172 92 0
-172 94 0
173 -90 -91 0
-173 90 0
-173 91 0
-174 175 176 0
-174 -175 -176 0
174 -175 176 0
174 175 -176 0
175 -386 90 0
-175 386 0
-175 -90 0
-176 -177 -180 0
-176 177 180 0
176 177 -180 0
176 -177 180 0
-177 386 178 0
-177 -386 -178 0
177 -386 178 0
177 386 -178 0
-178 380 179 0
-178 -381 -384 179 0
-178 381 384 179 0
178 -179 0
178 -380 381 -384 0
178 -380 -381 384 0
179 -365 381 384 -386 0
179 -365 -381 -384 386 0
-179 381 386 0
-179 -381 384 0
-179 365 0
-179 -384 -386 0
180 -181 183 0
180 181 -183 0
-180 181 183 0
-180 -181 -183 0
-181 375 182 0
-181 -375 -182 0
181 -375 182 0
181 375 -182 0
-182 364 375 0
-182 -364 371 0
-182 363 364 0
182 -364 -371 0
182 -363 364 -375 0
-183 381 184 0
-183 -381 -184 0
183 -381 184 0
183 381 -184 0
-184 26 38 0
-184 369 377 0
-184 377 38 0
-184 369 26 0
184 -377 -26 0
184 -369 -38 0
-185 -186 -298 0
-185 186 298 0
185 186 -298 0
185 -186 298 0
-186 187 284 0
-186 -257 284 -285 0
-186 187 257 285 0
-186 187 -257 -285 0
-186 257 284 285 0
186 -187 -284 0
186 -187 257 -285 0
186 -187 -257 285 0
186 -257 -284 285 0
186 257 -284 -285 0
-187 188 222 0
-187 188 -223 -233 0
-187 188 223 233 0
-187 222 223 233 0
-187 222 -223 -233 0
187 -188 -222 0
187 -222 -223 233 0
187 -188 -223 233 0
187 -222 223 -233 0
187 -188 223 -233 0
-188 189 220 0
-188 199 206 220 0
-188 -199 -206 220 0
188 -220 0
188 -189 -199 206 0
188 -189 199 -206 0
-189 190 192 196 0
-189 192 194 196 0
-189 190 194 196 0
189 -190 -192 0
189 -192 -194 0
189 -196 0
189 -190 -194 0
190 46 -191 0
190 -46 191 0
-190 -46 -191 0
-190 46 191 0
191 -383 -385 0
-191 383 0
-191 385 0
192 30 -193 0
192 -30 193 0
-192 -30 -193 0
-192 30 193 0
193 -365 -375 0
-193 365 0
-193 375 0
-194 -14 -195 0
-194 14 195 0
194 14 -195 0
194 -14 195 0
195 -376 -378 0
-195 376 0
-195 378 0
196 -125 -127 -197 0
196 -125 -126 -197 0
196 -126 -127 -197 0
-196 125 127 0
-196 126 127 0
-196 197 0
-196 125 126 0
-197 190 198 0
-197 -190 -198 0
197 -190 198 0
197 190 -198 0
-198 192 194 0
-198 -192 -194 0
198 -192 194 0
198 192 -194 0
199 -200 204 0
199 -201 204 0
199 -203 204 0
-199 -204 0
-199 200 201 203 0
-200 385 389 0
-200 -385 -388 -389 0
-200 -382 389 0
-200 385 388 0
200 382 -385 389 0
200 -385 388 -389 0
200 385 -388 -389 0
201 -383 -202 0
-201 383 0
-201 202 0
-202 -385 -387 0
-202 385 387 0
202 385 -387 0
202 -385 387 0
203 383 -385 46 0
-203 -383 0
-203 385 0
-203 -46 0
-204 -205 201 0
-204 200 203 0
-204 -205 200 0
-204 201 203 0
204 205 -203 0
204 -200 -201 0
-205 382 389 0
-205 388 -389 0
205 -388 -389 0
205 -382 389 0
-206 -207 -213 0
-206 207 213 0
206 207 -213 0
206 -207 213 0
207 -208 -211 212 0
207 208 209 -212 0
207 208 -209 212 0
207 -208 209 -211 0
-207 -208 211 0
-207 -209 -212 0
-207 208 209 212 0
208 365 -375 30 0
-208 -365 0
-208 375 0
-208 -30 0
209 -365 -210 0
-209 365 0
-209 210 0
-210 -367 -375 0
-210 367 375 0
210 367 -375 0
210 -367 375 0
-211 364 380 0
-211 -364 369 0
211 -364 -369 0
211 364 -380 0
-212 364 375 0
-212 369 375 0
-212 364 -380 0
-212 -364 -369 -375 0
212 -364 369 -375 0
212 -364 -369 375 0
212 364 -375 380 0
213 -214 217 0
213 -215 217 0
-213 -217 0
-213 214 215 0
-214 374 376 0
-214 -372 -374 -376 0
-214 372 376 0
-214 -370 374 0
214 370 374 -376 0
214 372 -374 -376 0
214 -372 -374 376 0
-215 378 -14 0
-215 -378 216 0
-215 376 378 0
215 -378 -216 0
215 -376 378 14 0
-216 -373 -376 0
-216 373 376 0
216 373 -376 0
216 -373 376 0
217 218 -214 -215 0
217 -214 -219 -215 0
-217 215 0
-217 214 0
-217 -218 219 0
218 -372 -374 0
218 -370 374 0
-218 370 374 0
-218 372 -374 0
219 -378 -216 0
-219 378 0
-219 216 0
220 -196 -221 0
-220 196 0
-220 221 0
221 -192 -194 0
-221 192 0
-221 194 0
-222 199 213 0
-222 207 213 0
-222 199 207 0
222 -199 -207 0
222 -207 -213 0
222 -199 -213 0
-223 204 224 0
-223 -204 -224 0
223 -204 224 0
223 204 -224 0
-224 225 230 0
-224 -225 -230 0
224 -225 230 0
224 225 -230 0
-225 383 226 0
-225 226 229 0
225 -226 0
225 -383 -229 0
-226 391 228 0
-226 -391 -228 0
-226 -383 227 228 0
226 391 -228 0
226 383 -391 228 0
226 -391 -227 228 0
-227 385 387 0
227 -385 0
227 -387 0
228 -382 -202 0
-228 382 0
-228 202 0
229 -385 -387 391 0
-229 385 0
-229 387 0
-229 -391 0
-230 231 232 0
-230 -231 -232 0
230 -231 232 0
230 231 -232 0
231 -391 201 0
-231 391 0
-231 -201 0
-232 -388 389 0
-232 385 389 0
-232 385 392 0
-232 -385 -389 -392 0
232 -385 -389 392 0
232 -385 388 389 0
232 385 -389 -392 0
-233 234 246 0
-233 -234 -246 0
233 -234 246 0
233 234 -246 0
234 235 -236 0
234 -235 236 0
-234 -235 -236 0
-234 235 236 0
-235 -211 212 0
-235 208 209 0
-235 208 212 0
-235 209 -211 0
235 -208 211 0
235 -209 -212 0
236 -237 243 0
236 237 -243 0
-236 237 243 0
-236 -237 -243 0
237 381 -240 0
237 -381 240 241 0
237 381 -238 0
-237 -381 -240 0
-237 381 238 240 0
-237 -381 -241 0
238 -365 -239 0
-238 365 0
-238 239 0
239 -367 -375 0
-239 367 0
-239 375 0
240 -380 -210 0
-240 380 0
-240 210 0
241 -365 242 0
-241 365 0
-241 -242 0
-242 367 375 0
242 -367 0
242 -375 0
-243 -244 -245 0
-243 244 245 0
243 244 -245 0
243 -244 245 0
244 -381 209 0
-244 381 0
-244 -209 0
245 -364 375 -377 0
245 -364 -375 377 0
245 364 369 -375 0
-245 364 -369 0
-245 364 375 0
-245 375 377 0
-245 -364 -375 -377 0
-246 -217 -247 0
-246 217 247 0
246 217 -247 0
246 -217 247 0
247 -248 254 0
247 248 -254 0
-247 248 254 0
-247 -248 -254 0
248 368 -251 0
248 -368 249 251 0
248 368 -252 0
-248 -368 -249 0
-248 -368 -251 0
-248 368 251 252 0
249 -378 250 0
-249 378 0
-249 -250 0
-250 373 376 0
250 -373 0
250 -376 0
251 -370 -216 0
-251 370 0
-251 216 0
252 -378 -253 0
-252 378 0
-252 253 0
253 -373 -376 0
-253 373 0
-253 376 0
-254 255 256 0
-254 -255 -256 0
254 -255 256 0
254 255 -256 0
255 -368 219 0
-255 368 0
-255 -219 0
-256 366 376 0
-256 -366 -374 -376 0
-256 -372 374 0
-256 374 376 0
256 372 374 -376 0
256 -366 -374 376 0
256 366 -374 -376 0
-257 -258 -271 0
-257 258 271 0
257 258 -271 0
257 -258 271 0
-258 259 260 0
-258 -259 -260 0
258 -259 260 0
258 259 -260 0
259 -235 -236 0
-259 235 0
-259 236 0
-260 -261 -262 0
-260 261 262 0
260 261 -262 0
260 -261 262 0
261 -237 -244 0
261 -244 -245 0
261 -237 -245 0
-261 237 245 0
-261 244 245 0
-261 237 244 0
262 -263 267 0
262 263 -267 0
-262 263 267 0
-262 -263 -267 0
263 381 -266 0
263 -381 264 265 0
263 381 -264 0
-263 -381 -264 0
-263 -381 -265 0
-263 381 264 266 0
264 -369 -210 0
-264 369 0
-264 210 0
265 -380 242 0
-265 380 0
-265 -242 0
266 -380 -239 0
-266 380 0
-266 239 0
-267 -268 -270 0
-267 268 270 0
267 268 -270 0
267 -268 270 0
268 -365 -269 0
-268 365 0
-268 269 0
-269 -381 -384 0
-269 381 384 0
269 381 -384 0
269 -381 384 0
270 363 -364 -375 0
270 364 -375 377 0
270 -363 -364 375 0
-270 363 375 0
-270 364 375 0
-270 364 -377 0
-270 -363 -364 -375 0
271 272 -273 0
271 -272 273 0
-271 -272 -273 0
-271 272 273 0
272 -217 -247 0
-272 217 0
-272 247 0
273 -274 275 0
273 274 -275 0
-273 274 275 0
-273 -274 -275 0
274 -248 -255 0
274 -255 -256 0
274 -248 -256 0
-274 255 256 0
-274 248 255 0
-274 248 256 0
-275 -276 -280 0
-275 276 280 0
275 276 -280 0
275 -276 280 0
276 368 -278 0
276 -368 278 279 0
276 368 -277 0
-276 -368 -278 0
-276 368 277 278 0
-276 -368 -279 0
277 -370 -253 0
-277 370 0
-277 253 0
278 -372 -216 0
-278 372 0
-278 216 0
279 -370 250 0
-279 370 0
-279 -250 0
280 -281 283 0
280 281 -283 0
-280 281 283 0
-280 -281 -283 0
281 -378 -282 0
-281 378 0
-281 282 0
-282 -368 -379 0
-282 368 379 0
282 368 -379 0
282 -368 379 0
-283 374 376 0
-283 -366 374 0
-283 376 394 0
-283 -374 -376 -394 0
283 -374 376 -394 0
283 -374 -376 394 0
283 366 374 -376 0
284 -234 -246 0
284 -223 -246 0
284 -223 -234 0
-284 223 246 0
-284 223 234 0
-284 234 246 0
285 286 -287 0
285 -286 287 0
-285 -286 -287 0
-285 286 287 0
286 -204 -224 0
-286 204 0
-286 224 0
287 288 -297 0
287 -288 297 0
-287 -288 -297 0
-287 288 297 0
288 289 -293 0
288 -289 293 0
-288 -289 -293 0
-288 289 293 0
-289 290 292 0
-289 -290 -292 0
289 -290 292 0
289 290 -292 0
290 -383 -291 0
-290 383 0
-290 291 0
-291 -391 -393 0
-291 391 393 0
291 391 -393 0
291 -391 393 0
-292 385 390 0
-292 385 389 0
-292 389 -392 0
-292 -385 -389 -390 0
292 385 -389 -390 0
292 -385 389 392 0
292 -385 -389 390 0
293 391 -295 0
293 -391 294 296 0
293 391 -294 0
-293 -391 -294 0
-293 -391 -296 0
-293 391 294 295 0
294 -388 -202 0
-294 388 0
-294 202 0
295 -382 -385 -387 0
-295 382 0
-295 385 0
-295 387 0
296 -382 227 0
-296 382 0
-296 -227 0
297 -231 -232 0
297 -225 -232 0
297 -225 -231 0
-297 225 232 0
-297 225 231 0
-297 231 232 0
298 -299 358 0
298 299 -358 0
-298 299 358 0
-298 -299 -358 0
-299 300 319 0
-299 -300 -319 0
299 -300 319 0
299 300 -319 0
-300 -301 -302 0
-300 301 302 0
300 301 -302 0
300 -301 302 0
301 -286 -288 0
301 -288 -297 0
301 -286 -297 0
-301 286 297 0
-301 288 297 0
-301 286 288 0
302 303 -318 0
302 -303 318 0
-302 -303 -318 0
-302 303 318 0
-303 304 312 0
-303 -304 -312 0
303 -304 312 0
303 304 -312 0
-304 305 306 0
-304 -305 -306 0
304 -305 306 0
304 305 -306 0
305 -362 290 0
-305 362 0
-305 -290 0
-306 383 308 309 0
-306 307 308 309 0
306 -309 0
306 -308 0
306 -383 -307 0
307 362 -391 -393 0
-307 393 0
-307 391 0
-307 -362 0
308 362 -382 -291 0
-308 -362 0
-308 382 0
-308 291 0
309 -362 383 311 0
309 -362 -310 311 0
-309 362 0
-309 -311 0
-309 -383 310 0
-310 391 393 0
310 -391 0
310 -393 0
311 -382 -291 0
-311 382 0
-311 291 0
-312 313 317 0
-312 -313 -317 0
312 -313 317 0
312 313 -317 0
-313 314 316 0
-313 -392 -202 314 0
313 -314 0
313 392 -316 0
313 202 -316 0
-314 392 315 0
-314 -391 315 0
-314 202 315 0
314 -315 0
314 391 -392 -202 0
315 -385 -387 -388 391 0
-315 388 0
-315 -391 0
-315 385 0
-315 387 0
316 388 -391 0
316 -391 -227 0
-316 391 0
-316 -388 227 0
-317 385 389 0
-317 361 385 0
-317 389 -390 0
-317 -361 -385 -389 0
317 361 -385 -389 0
317 -361 385 -389 0
317 -385 389 390 0
318 -290 -293 0
318 -290 -292 0
318 -292 -293 0
-318 292 293 0
-318 290 293 0
-318 290 292 0
-319 -320 -339 0
-319 320 339 0
319 320 -339 0
319 -320 339 0
320 321 -338 0
320 -321 338 0
-320 -321 -338 0
-320 321 338 0
321 322 -337 0
321 -322 337 0
-321 -322 -337 0
-321 322 337 0
-322 323 331 0
-322 -323 -331 0
322 -323 331 0
322 323 -331 0
-323 324 325 0
-323 -324 -325 0
323 -324 325 0
323 324 -325 0
324 -386 268 0
-324 386 0
-324 -268 0
-325 365 327 328 0
-325 326 327 328 0
325 -328 0
325 -327 0
325 -365 -326 0
326 -381 -384 386 0
-326 381 0
-326 384 0
-326 -386 0
327 -380 386 -269 0
-327 380 0
-327 269 0
-327 -386 0
328 365 -386 330 0
328 -386 -329 330 0
-328 386 0
-328 -330 0
-328 -365 329 0
-329 381 384 0
329 -381 0
329 -384 0
330 -380 -269 0
-330 380 0
-330 269 0
-331 332 333 0
-331 -332 -333 0
331 -332 333 0
331 332 -333 0
332 363 364 -375 0
332 -364 371 -375 0
332 -364 -371 375 0
-332 364 375 0
-332 -364 -371 -375 0
-332 371 375 0
-332 -363 364 0
-333 334 336 0
-333 -377 -210 334 0
333 -334 0
333 377 -336 0
333 210 -336 0
-334 -381 335 0
-334 210 335 0
-334 377 335 0
334 -335 0
334 -377 381 -210 0
335 -367 -369 -375 381 0
-335 375 0
-335 -381 0
-335 367 0
-335 369 0
336 369 -381 0
336 -381 -242 0
-336 381 0
-336 -369 242 0
337 -263 -268 0
337 -268 -270 0
337 -263 -270 0
-337 263 270 0
-337 268 270 0
-337 263 268 0
338 -259 -261 0
338 -261 -262 0
338 -259 -262 0
-338 259 262 0
-338 261 262 0
-338 259 261 0
339 340 -341 0
339 -340 341 0
-339 -340 -341 0
-339 340 341 0
340 -272 -274 0
340 -274 -275 0
340 -272 -275 0
-340 274 275 0
-340 272 274 0
-340 272 275 0
341 -342 343 0
341 342 -343 0
-341 342 343 0
-341 -342 -343 0
342 -276 -283 0
342 -378 -282 -283 0
342 -378 -276 -282 0
-342 378 283 0
-342 276 282 0
-342 276 283 0
-342 378 276 0
-342 282 283 0
-343 344 350 0
-343 -344 -350 0
343 -344 350 0
343 344 -350 0
-344 345 346 0
-344 -345 -346 0
344 -345 346 0
344 345 -346 0
-345 359 376 0
-345 374 376 0
-345 374 -394 0
-345 -359 -374 -376 0
345 359 -374 -376 0
345 374 -376 394 0
345 -359 -374 376 0
-346 347 349 0
-346 -366 -216 347 0
346 -347 0
346 366 -349 0
346 216 -349 0
-347 -368 348 0
-347 216 348 0
-347 366 348 0
347 -348 0
347 -366 368 -216 0
348 368 -372 -373 -376 0
-348 -368 0
-348 376 0
-348 373 0
-348 372 0
349 -368 -250 0
349 -368 372 0
-349 368 0
-349 -372 250 0
-350 351 352 0
-350 -351 -352 0
350 -351 352 0
350 351 -352 0
351 -360 281 0
-351 360 0
-351 -281 0
-352 378 354 355 0
-352 353 354 355 0
352 -355 0
352 -354 0
352 -378 -353 0
353 360 -368 -379 0
-353 379 0
-353 368 0
-353 -360 0
354 360 -370 -282 0
-354 -360 0
-354 370 0
-354 282 0
355 -360 378 357 0
355 -360 -356 357 0
-355 360 0
-355 -357 0
-355 -378 356 0
-356 368 379 0
356 -368 0
356 -379 0
357 -370 -282 0
-357 370 0
-357 282 0
-358 271 285 0
-358 258 271 0
-358 258 285 0
358 -258 -271 0
358 -271 -285 0
358 -258 -285 0
-395 0
2 0

